NAME : ch130
COMMENT : Optimum tour for ch130 (6110)
TYPE : TOUR
DIMENSION : 130
TOUR_SECTION
115
23
28
14
99
18
26
30
16
33
42
103
126
106
69
96
6
25
87
85
68
63
123
128
60
108
75
10
4
44
15
127
104
61
27
114
111
116
38
70
40
0
129
49
1
53
34
3
19
117
79
45
17
7
107
113
2
82
29
58
89
124
84
65
77
120
125
20
32
22
46
39
21
36
92
43
41
50
59
54
121
95
12
66
13
9
101
5
90
71
48
57
119
52
105
37
91
72
98
73
74
51
64
55
8
56
81
100
122
110
118
83
35
31
112
24
47
62
67
97
109
88
93
76
102
80
11
86
78
94
-1
EOF